\ Model profit_maximization
\ LP format - for model browsing. Use MPS format to capture full model detail.
Maximize
  5 X_0 + 10 X_1 + 8 X_2
Subject To
 constraint: 0.3333333333333333 X_0 + X_1 + 0.5 X_2 <= 4
Bounds
 X_0 <= 4
 X_1 <= 6
 X_2 <= 3
End
